SYSTEM= Ni
PREC = Accurate
ALGO = Normal
ISPIN=2
ENCUT= 500
EDIFF=1E-08
EDIFFG=-0.00001
IBRION=2
ISMEAR = 1
SIGMA = 0.1
NSW=150
ISIF=3
LREAL = Auto
NELM = 150
LORBIT = 12
LWAVE=.FALSE
LCHARGE=.FALSE
LCHARG=.FALSE
MAGMOM = 4*3.0
ISYM=1
SYMPREC=1E-10
NCORE = 8
KPAR = 8

