POSCAR file written by Ovito Basic 3.0.0-dev750
1
3.516 0.0 0.0
0.0 3.516 0.0
0.0 0.0 3.516
Ni 
4
Cartesian
0.0 0.0 0.0
0.0 1.76 1.76
1.76 0.0 1.76
1.76 1.76 0.0
